 ENCUT = 350.000000
 KSPACING = 0.2000
 SIGMA = 0.10000
 EDIFF = 1.00e-06
 GGA = PS
 ALGO = Normal
 ISYM = 0
 KPAR = 2
 NSW = 0
 IBRION = -1
 NPAR = 2
 LCHARG = .FALSE.
 LWAVE = .FALSE.
 LREAL = Auto
